*SPEF "IEEE 1481-1998"
*DESIGN "mac4"
*DATE "2026-09-13"
*VENDOR "toy flow"
*PROGRAM "rtl_to_gds_visualized"
*VERSION "1.0"
*DESIGN_FLOW "PIN_CAP INCLUDED"
*DIVIDER /
*DELIMITER :
*BUS_DELIMITER [ ]
*T_UNIT 1 NS
*C_UNIT 1 FF
*R_UNIT 1 OHM
*L_UNIT 1 HENRY

*D_NET clk 0.3120
*CONN
*P clk I
*I CTS_root:A I
*CAP
1 clk 0.1560
2 clk:1 0.1560
*RES
1 clk clk:1 5.571
2 clk:1 CTS_root:A 0.001
*END

*D_NET rst_n 5.7580
*CONN
*P rst_n I
*I U120:RN I
*I U121:RN I
*I U122:RN I
*I U123:RN I
*I U124:RN I
*I U125:RN I
*I U126:RN I
*I U127:RN I
*CAP
1 rst_n 2.8790
2 rst_n:1 2.8790
*RES
1 rst_n rst_n:1 102.821
2 rst_n:1 U120:RN 0.001
3 rst_n:1 U121:RN 0.001
4 rst_n:1 U122:RN 0.001
5 rst_n:1 U123:RN 0.001
6 rst_n:1 U124:RN 0.001
7 rst_n:1 U125:RN 0.001
8 rst_n:1 U126:RN 0.001
9 rst_n:1 U127:RN 0.001
*END

*D_NET clear 0.8980
*CONN
*P clear I
*I U1:A1 I
*I U46:A1 I
*I U59:A1 I
*CAP
1 clear 0.4490
2 clear:1 0.4490
*RES
1 clear clear:1 16.036
2 clear:1 U1:A1 0.001
3 clear:1 U46:A1 0.001
4 clear:1 U59:A1 0.001
*END

*D_NET en 0.9220
*CONN
*P en I
*I U1:A2 I
*I U57:A3 I
*CAP
1 en 0.4610
2 en:1 0.4610
*RES
1 en en:1 16.464
2 en:1 U1:A2 0.001
3 en:1 U57:A3 0.001
*END

*D_NET a[0] 2.4280
*CONN
*P a[0] I
*I U3:A1 I
*I U7:A1 I
*I U8:A1 I
*I U17:B2 I
*I U18:A1 I
*I U39:A1 I
*I U57:A1 I
*CAP
1 a[0] 1.2140
2 a[0]:1 1.2140
*RES
1 a[0] a[0]:1 43.357
2 a[0]:1 U3:A1 0.001
3 a[0]:1 U7:A1 0.001
4 a[0]:1 U8:A1 0.001
5 a[0]:1 U17:B2 0.001
6 a[0]:1 U18:A1 0.001
7 a[0]:1 U39:A1 0.001
8 a[0]:1 U57:A1 0.001
*END

*D_NET a[1] 2.8500
*CONN
*P a[1] I
*I U4:A1 I
*I U7:B1 I
*I U8:A3 I
*I U17:A2 I
*I U18:A3 I
*I U63:A2 I
*I U64:B2 I
*CAP
1 a[1] 1.4250
2 a[1]:1 1.4250
*RES
1 a[1] a[1]:1 50.893
2 a[1]:1 U4:A1 0.001
3 a[1]:1 U7:B1 0.001
4 a[1]:1 U8:A3 0.001
5 a[1]:1 U17:A2 0.001
6 a[1]:1 U18:A3 0.001
7 a[1]:1 U63:A2 0.001
8 a[1]:1 U64:B2 0.001
*END

*D_NET a[2] 4.7700
*CONN
*P a[2] I
*I U6:A1 I
*I U16:A2 I
*I U63:A3 I
*I U64:A2 I
*I U75:A1 I
*I U78:A2 I
*I U97:B1 I
*I U98:C2 I
*CAP
1 a[2] 2.3850
2 a[2]:1 2.3850
*RES
1 a[2] a[2]:1 85.179
2 a[2]:1 U6:A1 0.001
3 a[2]:1 U16:A2 0.001
4 a[2]:1 U63:A3 0.001
5 a[2]:1 U64:A2 0.001
6 a[2]:1 U75:A1 0.001
7 a[2]:1 U78:A2 0.001
8 a[2]:1 U97:B1 0.001
9 a[2]:1 U98:C2 0.001
*END

*D_NET a[3] 5.4360
*CONN
*P a[3] I
*I U15:A1 I
*I U62:A2 I
*I U75:B1 I
*I U77:A2 I
*I U78:A4 I
*CAP
1 a[3] 2.7180
2 a[3]:1 2.7180
*RES
1 a[3] a[3]:1 97.071
2 a[3]:1 U15:A1 0.001
3 a[3]:1 U62:A2 0.001
4 a[3]:1 U75:B1 0.001
5 a[3]:1 U77:A2 0.001
6 a[3]:1 U78:A4 0.001
*END

*D_NET b[0] 3.7360
*CONN
*P b[0] I
*I U4:A2 I
*I U6:A2 I
*I U15:A2 I
*I U39:A2 I
*I U57:A2 I
*CAP
1 b[0] 1.8680
2 b[0]:1 1.8680
*RES
1 b[0] b[0]:1 66.714
2 b[0]:1 U4:A2 0.001
3 b[0]:1 U6:A2 0.001
4 b[0]:1 U15:A2 0.001
5 b[0]:1 U39:A2 0.001
6 b[0]:1 U57:A2 0.001
*END

*D_NET b[1] 2.5880
*CONN
*P b[1] I
*I U3:A2 I
*I U7:B2 I
*I U8:A4 I
*I U16:A1 I
*I U62:A1 I
*CAP
1 b[1] 1.2940
2 b[1]:1 1.2940
*RES
1 b[1] b[1]:1 46.214
2 b[1]:1 U3:A2 0.001
3 b[1]:1 U7:B2 0.001
4 b[1]:1 U8:A4 0.001
5 b[1]:1 U16:A1 0.001
6 b[1]:1 U62:A1 0.001
*END

*D_NET b[2] 4.3160
*CONN
*P b[2] I
*I U7:A2 I
*I U8:A2 I
*I U17:A1 I
*I U18:A2 I
*I U63:A1 I
*I U64:A1 I
*I U75:B2 I
*I U78:A1 I
*I U97:B2 I
*I U98:C1 I
*CAP
1 b[2] 2.1580
2 b[2]:1 2.1580
*RES
1 b[2] b[2]:1 77.071
2 b[2]:1 U7:A2 0.001
3 b[2]:1 U8:A2 0.001
4 b[2]:1 U17:A1 0.001
5 b[2]:1 U18:A2 0.001
6 b[2]:1 U63:A1 0.001
7 b[2]:1 U64:A1 0.001
8 b[2]:1 U75:B2 0.001
9 b[2]:1 U78:A1 0.001
10 b[2]:1 U97:B2 0.001
11 b[2]:1 U98:C1 0.001
*END

*D_NET b[3] 4.9000
*CONN
*P b[3] I
*I U17:B1 I
*I U18:A4 I
*I U63:A4 I
*I U64:B1 I
*I U75:A2 I
*I U77:A1 I
*I U78:A3 I
*CAP
1 b[3] 2.4500
2 b[3]:1 2.4500
*RES
1 b[3] b[3]:1 87.500
2 b[3]:1 U17:B1 0.001
3 b[3]:1 U18:A4 0.001
4 b[3]:1 U63:A4 0.001
5 b[3]:1 U64:B1 0.001
6 b[3]:1 U75:A2 0.001
7 b[3]:1 U77:A1 0.001
8 b[3]:1 U78:A3 0.001
*END

*D_NET acc[0] 4.1880
*CONN
*I U120:Q O
*P acc[0] O
*I U39:A3 I
*I U58:A I
*CAP
1 U120:Q 2.0940
2 acc[0]:1 2.0940
*RES
1 U120:Q acc[0]:1 74.786
2 acc[0]:1 acc[0] 0.001
3 acc[0]:1 U39:A3 0.001
4 acc[0]:1 U58:A 0.001
*END

*D_NET acc[1] 5.9060
*CONN
*I U121:Q O
*P acc[1] O
*I U38:A1 I
*I U40:A I
*I U55:A1 I
*CAP
1 U121:Q 2.9530
2 acc[1]:1 2.9530
*RES
1 U121:Q acc[1]:1 105.464
2 acc[1]:1 acc[1] 0.001
3 acc[1]:1 U38:A1 0.001
4 acc[1]:1 U40:A 0.001
5 acc[1]:1 U55:A1 0.001
*END

*D_NET acc[2] 3.7440
*CONN
*I U122:Q O
*P acc[2] O
*I U13:A1 I
*I U36:A I
*I U50:A1 I
*CAP
1 U122:Q 1.8720
2 acc[2]:1 1.8720
*RES
1 U122:Q acc[2]:1 66.857
2 acc[2]:1 acc[2] 0.001
3 acc[2]:1 U13:A1 0.001
4 acc[2]:1 U36:A 0.001
5 acc[2]:1 U50:A1 0.001
*END

*D_NET acc[3] 3.0780
*CONN
*I U123:Q O
*P acc[3] O
*I U0:A I
*I U2:A1 I
*CAP
1 U123:Q 1.5390
2 acc[3]:1 1.5390
*RES
1 U123:Q acc[3]:1 54.964
2 acc[3]:1 acc[3] 0.001
3 acc[3]:1 U0:A 0.001
4 acc[3]:1 U2:A1 0.001
*END

*D_NET acc[4] 2.8200
*CONN
*I U124:Q O
*P acc[4] O
*I U72:A1 I
*I U87:A I
*I U116:A1 I
*CAP
1 U124:Q 1.4100
2 acc[4]:1 1.4100
*RES
1 U124:Q acc[4]:1 50.357
2 acc[4]:1 acc[4] 0.001
3 acc[4]:1 U72:A1 0.001
4 acc[4]:1 U87:A 0.001
5 acc[4]:1 U116:A1 0.001
*END

*D_NET acc[5] 3.1700
*CONN
*I U125:Q O
*P acc[5] O
*I U84:A I
*I U96:B2 I
*I U107:A1 I
*CAP
1 U125:Q 1.5850
2 acc[5]:1 1.5850
*RES
1 U125:Q acc[5]:1 56.607
2 acc[5]:1 acc[5] 0.001
3 acc[5]:1 U84:A 0.001
4 acc[5]:1 U96:B2 0.001
5 acc[5]:1 U107:A1 0.001
*END

*D_NET acc[6] 4.7780
*CONN
*I U126:Q O
*P acc[6] O
*I U60:A1 I
*I U100:A I
*I U111:B2 I
*CAP
1 U126:Q 2.3890
2 acc[6]:1 2.3890
*RES
1 U126:Q acc[6]:1 85.321
2 acc[6]:1 acc[6] 0.001
3 acc[6]:1 U60:A1 0.001
4 acc[6]:1 U100:A 0.001
5 acc[6]:1 U111:B2 0.001
*END

*D_NET acc[7] 2.9080
*CONN
*I U127:Q O
*P acc[7] O
*I U109:A1 I
*I U112:A I
*CAP
1 U127:Q 1.4540
2 acc[7]:1 1.4540
*RES
1 U127:Q acc[7]:1 51.929
2 acc[7]:1 acc[7] 0.001
3 acc[7]:1 U109:A1 0.001
4 acc[7]:1 U112:A 0.001
*END

*D_NET n22 0.5860
*CONN
*I U0:ZN O
*I U30:A1 I
*I U31:A I
*CAP
1 U0:ZN 0.2930
2 n22:1 0.2930
*RES
1 U0:ZN n22:1 10.464
2 n22:1 U30:A1 0.001
3 n22:1 U31:A 0.001
*END

*D_NET n23 8.8640
*CONN
*I U1:ZN O
*I U2:A2 I
*I U46:A2 I
*I U50:A2 I
*I U55:A2 I
*I U60:A2 I
*I U107:A2 I
*I U109:A2 I
*I U116:A2 I
*CAP
1 U1:ZN 4.4320
2 n23:1 4.4320
*RES
1 U1:ZN n23:1 158.286
2 n23:1 U2:A2 0.001
3 n23:1 U46:A2 0.001
4 n23:1 U50:A2 0.001
5 n23:1 U55:A2 0.001
6 n23:1 U60:A2 0.001
7 n23:1 U107:A2 0.001
8 n23:1 U109:A2 0.001
9 n23:1 U116:A2 0.001
*END

*D_NET n24 0.7740
*CONN
*I U2:ZN O
*I U49:A I
*CAP
1 U2:ZN 0.3870
2 n24:1 0.3870
*RES
1 U2:ZN n24:1 13.821
2 n24:1 U49:A 0.001
*END

*D_NET n25 1.1820
*CONN
*I U3:ZN O
*I U5:A1 I
*I U37:A I
*CAP
1 U3:ZN 0.5910
2 n25:1 0.5910
*RES
1 U3:ZN n25:1 21.107
2 n25:1 U5:A1 0.001
3 n25:1 U37:A 0.001
*END

*D_NET n26 1.1380
*CONN
*I U4:ZN O
*I U5:A2 I
*I U37:B I
*CAP
1 U4:ZN 0.5690
2 n26:1 0.5690
*RES
1 U4:ZN n26:1 20.321
2 n26:1 U5:A2 0.001
3 n26:1 U37:B 0.001
*END

*D_NET n27 0.8120
*CONN
*I U5:ZN O
*I U12:A I
*I U14:B2 I
*CAP
1 U5:ZN 0.4060
2 n27:1 0.4060
*RES
1 U5:ZN n27:1 14.500
2 n27:1 U12:A 0.001
3 n27:1 U14:B2 0.001
*END

*D_NET n28 1.0160
*CONN
*I U6:ZN O
*I U10:A1 I
*I U11:A I
*CAP
1 U6:ZN 0.5080
2 n28:1 0.5080
*RES
1 U6:ZN n28:1 18.143
2 n28:1 U10:A1 0.001
3 n28:1 U11:A 0.001
*END

*D_NET n29 0.3960
*CONN
*I U7:ZN O
*I U9:A1 I
*I U10:A2 I
*CAP
1 U7:ZN 0.1980
2 n29:1 0.1980
*RES
1 U7:ZN n29:1 7.071
2 n29:1 U9:A1 0.001
3 n29:1 U10:A2 0.001
*END

*D_NET n30 2.3880
*CONN
*I U8:ZN O
*I U9:A2 I
*I U10:A3 I
*I U22:A1 I
*I U23:A I
*CAP
1 U8:ZN 1.1940
2 n30:1 1.1940
*RES
1 U8:ZN n30:1 42.643
2 n30:1 U9:A2 0.001
3 n30:1 U10:A3 0.001
4 n30:1 U22:A1 0.001
5 n30:1 U23:A 0.001
*END

*D_NET n31 0.5240
*CONN
*I U9:ZN O
*I U11:B I
*CAP
1 U9:ZN 0.2620
2 n31:1 0.2620
*RES
1 U9:ZN n31:1 9.357
2 n31:1 U11:B 0.001
*END

*D_NET n32 1.0660
*CONN
*I U10:ZN O
*I U27:A1 I
*I U29:A I
*CAP
1 U10:ZN 0.5330
2 n32:1 0.5330
*RES
1 U10:ZN n32:1 19.036
2 n32:1 U27:A1 0.001
3 n32:1 U29:A 0.001
*END

*D_NET n33 1.6120
*CONN
*I U11:Z O
*I U12:B I
*I U14:B1 I
*CAP
1 U11:Z 0.8060
2 n33:1 0.8060
*RES
1 U11:Z n33:1 28.786
2 n33:1 U12:B 0.001
3 n33:1 U14:B1 0.001
*END

*D_NET n34 1.1700
*CONN
*I U12:Z O
*I U13:A2 I
*I U36:B I
*CAP
1 U12:Z 0.5850
2 n34:1 0.5850
*RES
1 U12:Z n34:1 20.893
2 n34:1 U13:A2 0.001
3 n34:1 U36:B 0.001
*END

*D_NET n35 0.1140
*CONN
*I U13:ZN O
*I U14:A I
*CAP
1 U13:ZN 0.0570
2 n35:1 0.0570
*RES
1 U13:ZN n35:1 2.036
2 n35:1 U14:A 0.001
*END

*D_NET n36 0.9220
*CONN
*I U14:ZN O
*I U32:A I
*I U33:A1 I
*I U34:A1 I
*CAP
1 U14:ZN 0.4610
2 n36:1 0.4610
*RES
1 U14:ZN n36:1 16.464
2 n36:1 U32:A 0.001
3 n36:1 U33:A1 0.001
4 n36:1 U34:A1 0.001
*END

*D_NET n37 2.8740
*CONN
*I U15:ZN O
*I U24:A1 I
*I U25:A1 I
*I U26:A I
*CAP
1 U15:ZN 1.4370
2 n37:1 1.4370
*RES
1 U15:ZN n37:1 51.321
2 n37:1 U24:A1 0.001
3 n37:1 U25:A1 0.001
4 n37:1 U26:A 0.001
*END

*D_NET n38 0.9260
*CONN
*I U16:ZN O
*I U19:A1 I
*I U20:A1 I
*I U21:A I
*CAP
1 U16:ZN 0.4630
2 n38:1 0.4630
*RES
1 U16:ZN n38:1 16.536
2 n38:1 U19:A1 0.001
3 n38:1 U20:A1 0.001
4 n38:1 U21:A 0.001
*END

*D_NET n39 1.4220
*CONN
*I U17:ZN O
*I U19:A2 I
*I U20:A2 I
*I U21:B1 I
*CAP
1 U17:ZN 0.7110
2 n39:1 0.7110
*RES
1 U17:ZN n39:1 25.393
2 n39:1 U19:A2 0.001
3 n39:1 U20:A2 0.001
4 n39:1 U21:B1 0.001
*END

*D_NET n40 3.5360
*CONN
*I U18:ZN O
*I U19:A3 I
*I U20:A3 I
*I U21:B2 I
*I U67:B2 I
*I U68:A1 I
*CAP
1 U18:ZN 1.7680
2 n40:1 1.7680
*RES
1 U18:ZN n40:1 63.143
2 n40:1 U19:A3 0.001
3 n40:1 U20:A3 0.001
4 n40:1 U21:B2 0.001
5 n40:1 U67:B2 0.001
6 n40:1 U68:A1 0.001
*END

*D_NET n41 1.9560
*CONN
*I U19:ZN O
*I U67:B1 I
*I U68:A2 I
*CAP
1 U19:ZN 0.9780
2 n41:1 0.9780
*RES
1 U19:ZN n41:1 34.929
2 n41:1 U67:B1 0.001
3 n41:1 U68:A2 0.001
*END

*D_NET n42 0.6840
*CONN
*I U20:ZN O
*I U22:A2 I
*I U23:B1 I
*CAP
1 U20:ZN 0.3420
2 n42:1 0.3420
*RES
1 U20:ZN n42:1 12.214
2 n42:1 U22:A2 0.001
3 n42:1 U23:B1 0.001
*END

*D_NET n43 0.5960
*CONN
*I U21:ZN O
*I U22:A3 I
*I U23:B2 I
*CAP
1 U21:ZN 0.2980
2 n43:1 0.2980
*RES
1 U21:ZN n43:1 10.643
2 n43:1 U22:A3 0.001
3 n43:1 U23:B2 0.001
*END

*D_NET n44 3.1880
*CONN
*I U22:ZN O
*I U24:A2 I
*I U25:A2 I
*I U26:B1 I
*I U61:A1 I
*CAP
1 U22:ZN 1.5940
2 n44:1 1.5940
*RES
1 U22:ZN n44:1 56.929
2 n44:1 U24:A2 0.001
3 n44:1 U25:A2 0.001
4 n44:1 U26:B1 0.001
5 n44:1 U61:A1 0.001
*END

*D_NET n45 3.8020
*CONN
*I U23:ZN O
*I U24:A3 I
*I U25:A3 I
*I U26:B2 I
*CAP
1 U23:ZN 1.9010
2 n45:1 1.9010
*RES
1 U23:ZN n45:1 67.893
2 n45:1 U24:A3 0.001
3 n45:1 U25:A3 0.001
4 n45:1 U26:B2 0.001
*END

*D_NET n46 0.3940
*CONN
*I U24:ZN O
*I U61:A2 I
*CAP
1 U24:ZN 0.1970
2 n46:1 0.1970
*RES
1 U24:ZN n46:1 7.036
2 n46:1 U61:A2 0.001
*END

*D_NET n47 0.8560
*CONN
*I U25:ZN O
*I U27:A2 I
*I U29:B1 I
*CAP
1 U25:ZN 0.4280
2 n47:1 0.4280
*RES
1 U25:ZN n47:1 15.286
2 n47:1 U27:A2 0.001
3 n47:1 U29:B1 0.001
*END

*D_NET n48 1.8500
*CONN
*I U26:ZN O
*I U27:A3 I
*I U29:B2 I
*CAP
1 U26:ZN 0.9250
2 n48:1 0.9250
*RES
1 U26:ZN n48:1 33.036
2 n48:1 U27:A3 0.001
3 n48:1 U29:B2 0.001
*END

*D_NET n49 1.9120
*CONN
*I U27:ZN O
*I U28:A I
*I U30:A2 I
*I U31:B1 I
*CAP
1 U27:ZN 0.9560
2 n49:1 0.9560
*RES
1 U27:ZN n49:1 34.143
2 n49:1 U28:A 0.001
3 n49:1 U30:A2 0.001
4 n49:1 U31:B1 0.001
*END

*D_NET n50 0.1680
*CONN
*I U28:ZN O
*I U86:A1 I
*CAP
1 U28:ZN 0.0840
2 n50:1 0.0840
*RES
1 U28:ZN n50:1 3.000
2 n50:1 U86:A1 0.001
*END

*D_NET n51 0.5200
*CONN
*I U29:ZN O
*I U30:A3 I
*I U31:B2 I
*CAP
1 U29:ZN 0.2600
2 n51:1 0.2600
*RES
1 U29:ZN n51:1 9.286
2 n51:1 U30:A3 0.001
3 n51:1 U31:B2 0.001
*END

*D_NET n52 2.9680
*CONN
*I U30:ZN O
*I U32:B1 I
*I U33:A2 I
*I U34:A2 I
*I U86:A2 I
*CAP
1 U30:ZN 1.4840
2 n52:1 1.4840
*RES
1 U30:ZN n52:1 53.000
2 n52:1 U32:B1 0.001
3 n52:1 U33:A2 0.001
4 n52:1 U34:A2 0.001
5 n52:1 U86:A2 0.001
*END

*D_NET n53 1.4000
*CONN
*I U31:ZN O
*I U32:B2 I
*I U33:A3 I
*I U34:A3 I
*CAP
1 U31:ZN 0.7000
2 n53:1 0.7000
*RES
1 U31:ZN n53:1 25.000
2 n53:1 U32:B2 0.001
3 n53:1 U33:A3 0.001
4 n53:1 U34:A3 0.001
*END

*D_NET n54 1.0300
*CONN
*I U32:ZN O
*I U35:A1 I
*I U45:A1 I
*I U89:B2 I
*CAP
1 U32:ZN 0.5150
2 n54:1 0.5150
*RES
1 U32:ZN n54:1 18.393
2 n54:1 U35:A1 0.001
3 n54:1 U45:A1 0.001
4 n54:1 U89:B2 0.001
*END

*D_NET n55 1.3740
*CONN
*I U33:ZN O
*I U35:A2 I
*I U45:A2 I
*CAP
1 U33:ZN 0.6870
2 n55:1 0.6870
*RES
1 U33:ZN n55:1 24.536
2 n55:1 U35:A2 0.001
3 n55:1 U45:A2 0.001
*END

*D_NET n56 0.3780
*CONN
*I U34:ZN O
*I U89:A I
*CAP
1 U34:ZN 0.1890
2 n56:1 0.1890
*RES
1 U34:ZN n56:1 6.750
2 n56:1 U89:A 0.001
*END

*D_NET n57 0.1900
*CONN
*I U35:ZN O
*I U48:B2 I
*CAP
1 U35:ZN 0.0950
2 n57:1 0.0950
*RES
1 U35:ZN n57:1 3.393
2 n57:1 U48:B2 0.001
*END

*D_NET n58 0.8160
*CONN
*I U36:Z O
*I U43:A1 I
*I U52:B2 I
*CAP
1 U36:Z 0.4080
2 n58:1 0.4080
*RES
1 U36:Z n58:1 14.571
2 n58:1 U43:A1 0.001
3 n58:1 U52:B2 0.001
*END

*D_NET n59 1.6260
*CONN
*I U37:Z O
*I U38:A2 I
*I U40:B I
*CAP
1 U37:Z 0.8130
2 n59:1 0.8130
*RES
1 U37:Z n59:1 29.036
2 n59:1 U38:A2 0.001
3 n59:1 U40:B 0.001
*END

*D_NET n60 0.4320
*CONN
*I U38:ZN O
*I U42:A1 I
*CAP
1 U38:ZN 0.2160
2 n60:1 0.2160
*RES
1 U38:ZN n60:1 7.714
2 n60:1 U42:A1 0.001
*END

*D_NET n61 1.6960
*CONN
*I U39:ZN O
*I U41:A1 I
*I U54:B2 I
*CAP
1 U39:ZN 0.8480
2 n61:1 0.8480
*RES
1 U39:ZN n61:1 30.286
2 n61:1 U41:A1 0.001
3 n61:1 U54:B2 0.001
*END

*D_NET n62 1.2080
*CONN
*I U40:ZN O
*I U41:A2 I
*I U54:B1 I
*CAP
1 U40:ZN 0.6040
2 n62:1 0.6040
*RES
1 U40:ZN n62:1 21.571
2 n62:1 U41:A2 0.001
3 n62:1 U54:B1 0.001
*END

*D_NET n63 2.3260
*CONN
*I U41:ZN O
*I U42:A2 I
*I U55:B1 I
*CAP
1 U41:ZN 1.1630
2 n63:1 1.1630
*RES
1 U41:ZN n63:1 41.536
2 n63:1 U42:A2 0.001
3 n63:1 U55:B1 0.001
*END

*D_NET n64 0.9800
*CONN
*I U42:ZN O
*I U43:A2 I
*I U52:B1 I
*CAP
1 U42:ZN 0.4900
2 n64:1 0.4900
*RES
1 U42:ZN n64:1 17.500
2 n64:1 U43:A2 0.001
3 n64:1 U52:B1 0.001
*END

*D_NET n65 3.6960
*CONN
*I U43:ZN O
*I U44:A I
*I U48:B1 I
*I U51:A1 I
*CAP
1 U43:ZN 1.8480
2 n65:1 1.8480
*RES
1 U43:ZN n65:1 66.000
2 n65:1 U44:A 0.001
3 n65:1 U48:B1 0.001
4 n65:1 U51:A1 0.001
*END

*D_NET n66 1.1120
*CONN
*I U44:ZN O
*I U45:A3 I
*I U89:B1 I
*CAP
1 U44:ZN 0.5560
2 n66:1 0.5560
*RES
1 U44:ZN n66:1 19.857
2 n66:1 U45:A3 0.001
3 n66:1 U89:B1 0.001
*END

*D_NET n67 0.3180
*CONN
*I U45:ZN O
*I U49:B1 I
*CAP
1 U45:ZN 0.1590
2 n67:1 0.1590
*RES
1 U45:ZN n67:1 5.679
2 n67:1 U49:B1 0.001
*END

*D_NET n68 2.5440
*CONN
*I U46:ZN O
*I U47:A I
*I U48:A I
*I U118:A1 I
*CAP
1 U46:ZN 1.2720
2 n68:1 1.2720
*RES
1 U46:ZN n68:1 45.429
2 n68:1 U47:A 0.001
3 n68:1 U48:A 0.001
4 n68:1 U118:A1 0.001
*END

*D_NET n69 5.7540
*CONN
*I U47:ZN O
*I U51:A2 I
*I U54:A I
*I U104:B2 I
*I U106:A1 I
*I U115:B2 I
*CAP
1 U47:ZN 2.8770
2 n69:1 2.8770
*RES
1 U47:ZN n69:1 102.750
2 n69:1 U51:A2 0.001
3 n69:1 U54:A 0.001
4 n69:1 U104:B2 0.001
5 n69:1 U106:A1 0.001
6 n69:1 U115:B2 0.001
*END

*D_NET n70 1.0000
*CONN
*I U48:ZN O
*I U49:B2 I
*CAP
1 U48:ZN 0.5000
2 n70:1 0.5000
*RES
1 U48:ZN n70:1 17.857
2 n70:1 U49:B2 0.001
*END

*D_NET n71 0.2440
*CONN
*I U49:ZN O
*I U123:D I
*CAP
1 U49:ZN 0.1220
2 n71:1 0.1220
*RES
1 U49:ZN n71:1 4.357
2 n71:1 U123:D 0.001
*END

*D_NET n72 0.6360
*CONN
*I U50:ZN O
*I U53:A1 I
*CAP
1 U50:ZN 0.3180
2 n72:1 0.3180
*RES
1 U50:ZN n72:1 11.357
2 n72:1 U53:A1 0.001
*END

*D_NET n73 0.5080
*CONN
*I U51:ZN O
*I U52:A I
*CAP
1 U51:ZN 0.2540
2 n73:1 0.2540
*RES
1 U51:ZN n73:1 9.071
2 n73:1 U52:A 0.001
*END

*D_NET n74 0.6080
*CONN
*I U52:ZN O
*I U53:A2 I
*CAP
1 U52:ZN 0.3040
2 n74:1 0.3040
*RES
1 U52:ZN n74:1 10.857
2 n74:1 U53:A2 0.001
*END

*D_NET n75 2.2140
*CONN
*I U53:ZN O
*I U122:D I
*CAP
1 U53:ZN 1.1070
2 n75:1 1.1070
*RES
1 U53:ZN n75:1 39.536
2 n75:1 U122:D 0.001
*END

*D_NET n76 1.1820
*CONN
*I U54:ZN O
*I U55:B2 I
*CAP
1 U54:ZN 0.5910
2 n76:1 0.5910
*RES
1 U54:ZN n76:1 21.107
2 n76:1 U55:B2 0.001
*END

*D_NET n77 0.3420
*CONN
*I U55:ZN O
*I U56:A I
*CAP
1 U55:ZN 0.1710
2 n77:1 0.1710
*RES
1 U55:ZN n77:1 6.107
2 n77:1 U56:A 0.001
*END

*D_NET n78 0.4340
*CONN
*I U56:ZN O
*I U121:D I
*CAP
1 U56:ZN 0.2170
2 n78:1 0.2170
*RES
1 U56:ZN n78:1 7.750
2 n78:1 U121:D 0.001
*END

*D_NET n79 0.3180
*CONN
*I U57:ZN O
*I U58:B I
*CAP
1 U57:ZN 0.1590
2 n79:1 0.1590
*RES
1 U57:ZN n79:1 5.679
2 n79:1 U58:B 0.001
*END

*D_NET n80 0.3020
*CONN
*I U58:Z O
*I U59:A2 I
*CAP
1 U58:Z 0.1510
2 n80:1 0.1510
*RES
1 U58:Z n80:1 5.393
2 n80:1 U59:A2 0.001
*END

*D_NET n81 2.2200
*CONN
*I U59:ZN O
*I U120:D I
*CAP
1 U59:ZN 1.1100
2 n81:1 1.1100
*RES
1 U59:ZN n81:1 39.643
2 n81:1 U120:D 0.001
*END

*D_NET n82 0.1900
*CONN
*I U60:ZN O
*I U104:A I
*CAP
1 U60:ZN 0.0950
2 n82:1 0.0950
*RES
1 U60:ZN n82:1 3.393
2 n82:1 U104:A 0.001
*END

*D_NET n83 0.4640
*CONN
*I U61:ZN O
*I U71:A I
*I U73:B2 I
*CAP
1 U61:ZN 0.2320
2 n83:1 0.2320
*RES
1 U61:ZN n83:1 8.286
2 n83:1 U71:A 0.001
3 n83:1 U73:B2 0.001
*END

*D_NET n84 1.1200
*CONN
*I U62:ZN O
*I U66:A I
*I U74:B2 I
*CAP
1 U62:ZN 0.5600
2 n84:1 0.5600
*RES
1 U62:ZN n84:1 20.000
2 n84:1 U66:A 0.001
3 n84:1 U74:B2 0.001
*END

*D_NET n85 0.8640
*CONN
*I U63:ZN O
*I U65:A1 I
*I U74:A I
*CAP
1 U63:ZN 0.4320
2 n85:1 0.4320
*RES
1 U63:ZN n85:1 15.429
2 n85:1 U65:A1 0.001
3 n85:1 U74:A 0.001
*END

*D_NET n86 0.4300
*CONN
*I U64:ZN O
*I U65:A2 I
*CAP
1 U64:ZN 0.2150
2 n86:1 0.2150
*RES
1 U64:ZN n86:1 7.679
2 n86:1 U65:A2 0.001
*END

*D_NET n87 1.1900
*CONN
*I U65:ZN O
*I U66:B I
*I U74:B1 I
*CAP
1 U65:ZN 0.5950
2 n87:1 0.5950
*RES
1 U65:ZN n87:1 21.250
2 n87:1 U66:B 0.001
3 n87:1 U74:B1 0.001
*END

*D_NET n88 1.0860
*CONN
*I U66:Z O
*I U67:A I
*I U68:A3 I
*CAP
1 U66:Z 0.5430
2 n88:1 0.5430
*RES
1 U66:Z n88:1 19.393
2 n88:1 U67:A 0.001
3 n88:1 U68:A3 0.001
*END

*D_NET n89 1.5640
*CONN
*I U67:ZN O
*I U69:A1 I
*I U82:A1 I
*I U83:A I
*CAP
1 U67:ZN 0.7820
2 n89:1 0.7820
*RES
1 U67:ZN n89:1 27.929
2 n89:1 U69:A1 0.001
3 n89:1 U82:A1 0.001
4 n89:1 U83:A 0.001
*END

*D_NET n90 0.4560
*CONN
*I U68:ZN O
*I U69:A2 I
*CAP
1 U68:ZN 0.2280
2 n90:1 0.2280
*RES
1 U68:ZN n90:1 8.143
2 n90:1 U69:A2 0.001
*END

*D_NET n91 2.1900
*CONN
*I U69:ZN O
*I U70:A I
*I U71:B I
*CAP
1 U69:ZN 1.0950
2 n91:1 1.0950
*RES
1 U69:ZN n91:1 39.107
2 n91:1 U70:A 0.001
3 n91:1 U71:B 0.001
*END

*D_NET n92 1.3480
*CONN
*I U70:ZN O
*I U73:B1 I
*CAP
1 U70:ZN 0.6740
2 n92:1 0.6740
*RES
1 U70:ZN n92:1 24.071
2 n92:1 U73:B1 0.001
*END

*D_NET n93 0.9620
*CONN
*I U71:ZN O
*I U72:A2 I
*I U87:B I
*CAP
1 U71:ZN 0.4810
2 n93:1 0.4810
*RES
1 U71:ZN n93:1 17.179
2 n93:1 U72:A2 0.001
3 n93:1 U87:B 0.001
*END

*D_NET n94 0.3180
*CONN
*I U72:ZN O
*I U73:A I
*CAP
1 U72:ZN 0.1590
2 n94:1 0.1590
*RES
1 U72:ZN n94:1 5.679
2 n94:1 U73:A 0.001
*END

*D_NET n95 2.0160
*CONN
*I U73:ZN O
*I U85:A1 I
*I U93:A I
*CAP
1 U73:ZN 1.0080
2 n95:1 1.0080
*RES
1 U73:ZN n95:1 36.000
2 n95:1 U85:A1 0.001
3 n95:1 U93:A 0.001
*END

*D_NET n96 2.1940
*CONN
*I U74:ZN O
*I U80:A1 I
*I U81:A I
*CAP
1 U74:ZN 1.0970
2 n96:1 1.0970
*RES
1 U74:ZN n96:1 39.179
2 n96:1 U80:A1 0.001
3 n96:1 U81:A 0.001
*END

*D_NET n97 0.5980
*CONN
*I U75:ZN O
*I U76:A I
*CAP
1 U75:ZN 0.2990
2 n97:1 0.2990
*RES
1 U75:ZN n97:1 10.679
2 n97:1 U76:A 0.001
*END

*D_NET n98 2.4180
*CONN
*I U76:ZN O
*I U79:A1 I
*CAP
1 U76:ZN 1.2090
2 n98:1 1.2090
*RES
1 U76:ZN n98:1 43.179
2 n98:1 U79:A1 0.001
*END

*D_NET n99 0.3800
*CONN
*I U77:ZN O
*I U97:A I
*I U98:A I
*CAP
1 U77:ZN 0.1900
2 n99:1 0.1900
*RES
1 U77:ZN n99:1 6.786
2 n99:1 U97:A 0.001
3 n99:1 U98:A 0.001
*END

*D_NET n100 1.3500
*CONN
*I U78:ZN O
*I U79:A2 I
*I U112:B I
*CAP
1 U78:ZN 0.6750
2 n100:1 0.6750
*RES
1 U78:ZN n100:1 24.107
2 n100:1 U79:A2 0.001
3 n100:1 U112:B 0.001
*END

*D_NET n101 0.5440
*CONN
*I U79:ZN O
*I U80:A2 I
*I U81:B I
*CAP
1 U79:ZN 0.2720
2 n101:1 0.2720
*RES
1 U79:ZN n101:1 9.714
2 n101:1 U80:A2 0.001
3 n101:1 U81:B 0.001
*END

*D_NET n102 1.0980
*CONN
*I U80:ZN O
*I U98:B I
*I U99:A I
*CAP
1 U80:ZN 0.5490
2 n102:1 0.5490
*RES
1 U80:ZN n102:1 19.607
2 n102:1 U98:B 0.001
3 n102:1 U99:A 0.001
*END

*D_NET n103 1.6360
*CONN
*I U81:ZN O
*I U82:A2 I
*I U83:B I
*CAP
1 U81:ZN 0.8180
2 n103:1 0.8180
*RES
1 U81:ZN n103:1 29.214
2 n103:1 U82:A2 0.001
3 n103:1 U83:B 0.001
*END

*D_NET n104 0.3560
*CONN
*I U82:ZN O
*I U96:A I
*CAP
1 U82:ZN 0.1780
2 n104:1 0.1780
*RES
1 U82:ZN n104:1 6.357
2 n104:1 U96:A 0.001
*END

*D_NET n105 0.9320
*CONN
*I U83:Z O
*I U84:B I
*I U96:B1 I
*CAP
1 U83:Z 0.4660
2 n105:1 0.4660
*RES
1 U83:Z n105:1 16.643
2 n105:1 U84:B 0.001
3 n105:1 U96:B1 0.001
*END

*D_NET n106 1.7440
*CONN
*I U84:Z O
*I U85:A2 I
*I U93:B I
*CAP
1 U84:Z 0.8720
2 n106:1 0.8720
*RES
1 U84:Z n106:1 31.143
2 n106:1 U85:A2 0.001
3 n106:1 U93:B 0.001
*END

*D_NET n107 0.6360
*CONN
*I U85:ZN O
*I U95:A I
*CAP
1 U85:ZN 0.3180
2 n107:1 0.3180
*RES
1 U85:ZN n107:1 11.357
2 n107:1 U95:A 0.001
*END

*D_NET n108 1.7420
*CONN
*I U86:ZN O
*I U88:A1 I
*I U90:A I
*CAP
1 U86:ZN 0.8710
2 n108:1 0.8710
*RES
1 U86:ZN n108:1 31.107
2 n108:1 U88:A1 0.001
3 n108:1 U90:A 0.001
*END

*D_NET n109 0.7340
*CONN
*I U87:ZN O
*I U88:A2 I
*I U90:B I
*CAP
1 U87:ZN 0.3670
2 n109:1 0.3670
*RES
1 U87:ZN n109:1 13.107
2 n109:1 U88:A2 0.001
3 n109:1 U90:B 0.001
*END

*D_NET n110 0.7020
*CONN
*I U88:ZN O
*I U92:A I
*CAP
1 U88:ZN 0.3510
2 n110:1 0.3510
*RES
1 U88:ZN n110:1 12.536
2 n110:1 U92:A 0.001
*END

*D_NET n111 2.1840
*CONN
*I U89:ZN O
*I U91:A1 I
*I U92:B1 I
*I U117:A1 I
*CAP
1 U89:ZN 1.0920
2 n111:1 1.0920
*RES
1 U89:ZN n111:1 39.000
2 n111:1 U91:A1 0.001
3 n111:1 U92:B1 0.001
4 n111:1 U117:A1 0.001
*END

*D_NET n112 2.1700
*CONN
*I U90:Z O
*I U91:A2 I
*I U92:B2 I
*I U117:A2 I
*CAP
1 U90:Z 1.0850
2 n112:1 1.0850
*RES
1 U90:Z n112:1 38.750
2 n112:1 U91:A2 0.001
3 n112:1 U92:B2 0.001
4 n112:1 U117:A2 0.001
*END

*D_NET n113 0.7960
*CONN
*I U91:ZN O
*I U118:A2 I
*CAP
1 U91:ZN 0.3980
2 n113:1 0.3980
*RES
1 U91:ZN n113:1 14.214
2 n113:1 U118:A2 0.001
*END

*D_NET n114 1.0540
*CONN
*I U92:ZN O
*I U94:A1 I
*I U95:B1 I
*I U105:A1 I
*CAP
1 U92:ZN 0.5270
2 n114:1 0.5270
*RES
1 U92:ZN n114:1 18.821
2 n114:1 U94:A1 0.001
3 n114:1 U95:B1 0.001
4 n114:1 U105:A1 0.001
*END

*D_NET n115 1.6120
*CONN
*I U93:ZN O
*I U94:A2 I
*I U95:B2 I
*I U105:A2 I
*CAP
1 U93:ZN 0.8060
2 n115:1 0.8060
*RES
1 U93:ZN n115:1 28.786
2 n115:1 U94:A2 0.001
3 n115:1 U95:B2 0.001
4 n115:1 U105:A2 0.001
*END

*D_NET n116 1.4980
*CONN
*I U94:ZN O
*I U106:A2 I
*CAP
1 U94:ZN 0.7490
2 n116:1 0.7490
*RES
1 U94:ZN n116:1 26.750
2 n116:1 U106:A2 0.001
*END

*D_NET n117 1.3120
*CONN
*I U95:ZN O
*I U103:A I
*I U110:B2 I
*CAP
1 U95:ZN 0.6560
2 n117:1 0.6560
*RES
1 U95:ZN n117:1 23.429
2 n117:1 U103:A 0.001
3 n117:1 U110:B2 0.001
*END

*D_NET n118 1.0420
*CONN
*I U96:ZN O
*I U101:A1 I
*I U102:A I
*CAP
1 U96:ZN 0.5210
2 n118:1 0.5210
*RES
1 U96:ZN n118:1 18.607
2 n118:1 U101:A1 0.001
3 n118:1 U102:A 0.001
*END

*D_NET n119 0.3560
*CONN
*I U97:ZN O
*I U99:B I
*CAP
1 U97:ZN 0.1780
2 n119:1 0.1780
*RES
1 U97:ZN n119:1 6.357
2 n119:1 U99:B 0.001
*END

*D_NET n120 0.2800
*CONN
*I U98:ZN O
*I U111:A I
*CAP
1 U98:ZN 0.1400
2 n120:1 0.1400
*RES
1 U98:ZN n120:1 5.000
2 n120:1 U111:A 0.001
*END

*D_NET n121 0.9380
*CONN
*I U99:ZN O
*I U100:B I
*I U111:B1 I
*CAP
1 U99:ZN 0.4690
2 n121:1 0.4690
*RES
1 U99:ZN n121:1 16.750
2 n121:1 U100:B 0.001
3 n121:1 U111:B1 0.001
*END

*D_NET n122 0.2820
*CONN
*I U100:ZN O
*I U101:A2 I
*I U102:B I
*CAP
1 U100:ZN 0.1410
2 n122:1 0.1410
*RES
1 U100:ZN n122:1 5.036
2 n122:1 U101:A2 0.001
3 n122:1 U102:B 0.001
*END

*D_NET n123 0.3040
*CONN
*I U101:ZN O
*I U110:A I
*CAP
1 U101:ZN 0.1520
2 n123:1 0.1520
*RES
1 U101:ZN n123:1 5.429
2 n123:1 U110:A 0.001
*END

*D_NET n124 0.4540
*CONN
*I U102:Z O
*I U103:B I
*I U110:B1 I
*CAP
1 U102:Z 0.2270
2 n124:1 0.2270
*RES
1 U102:Z n124:1 8.107
2 n124:1 U103:B 0.001
3 n124:1 U110:B1 0.001
*END

*D_NET n125 0.4680
*CONN
*I U103:ZN O
*I U104:B1 I
*CAP
1 U103:ZN 0.2340
2 n125:1 0.2340
*RES
1 U103:ZN n125:1 8.357
2 n125:1 U104:B1 0.001
*END

*D_NET n126 1.1380
*CONN
*I U104:ZN O
*I U126:D I
*CAP
1 U104:ZN 0.5690
2 n126:1 0.5690
*RES
1 U104:ZN n126:1 20.321
2 n126:1 U126:D 0.001
*END

*D_NET n127 0.9020
*CONN
*I U105:ZN O
*I U107:B1 I
*CAP
1 U105:ZN 0.4510
2 n127:1 0.4510
*RES
1 U105:ZN n127:1 16.107
2 n127:1 U107:B1 0.001
*END

*D_NET n128 0.5480
*CONN
*I U106:ZN O
*I U107:B2 I
*CAP
1 U106:ZN 0.2740
2 n128:1 0.2740
*RES
1 U106:ZN n128:1 9.786
2 n128:1 U107:B2 0.001
*END

*D_NET n129 0.6740
*CONN
*I U107:ZN O
*I U108:A I
*CAP
1 U107:ZN 0.3370
2 n129:1 0.3370
*RES
1 U107:ZN n129:1 12.036
2 n129:1 U108:A 0.001
*END

*D_NET n130 0.5240
*CONN
*I U108:ZN O
*I U125:D I
*CAP
1 U108:ZN 0.2620
2 n130:1 0.2620
*RES
1 U108:ZN n130:1 9.357
2 n130:1 U125:D 0.001
*END

*D_NET n131 0.3940
*CONN
*I U109:ZN O
*I U115:A I
*CAP
1 U109:ZN 0.1970
2 n131:1 0.1970
*RES
1 U109:ZN n131:1 7.036
2 n131:1 U115:A 0.001
*END

*D_NET n132 0.9380
*CONN
*I U110:ZN O
*I U114:A I
*CAP
1 U110:ZN 0.4690
2 n132:1 0.4690
*RES
1 U110:ZN n132:1 16.750
2 n132:1 U114:A 0.001
*END

*D_NET n133 0.5300
*CONN
*I U111:ZN O
*I U113:A I
*CAP
1 U111:ZN 0.2650
2 n133:1 0.2650
*RES
1 U111:ZN n133:1 9.464
2 n133:1 U113:A 0.001
*END

*D_NET n134 0.3400
*CONN
*I U112:Z O
*I U113:B I
*CAP
1 U112:Z 0.1700
2 n134:1 0.1700
*RES
1 U112:Z n134:1 6.071
2 n134:1 U113:B 0.001
*END

*D_NET n135 0.1680
*CONN
*I U113:ZN O
*I U114:B I
*CAP
1 U113:ZN 0.0840
2 n135:1 0.0840
*RES
1 U113:ZN n135:1 3.000
2 n135:1 U114:B 0.001
*END

*D_NET n136 0.5820
*CONN
*I U114:ZN O
*I U115:B1 I
*CAP
1 U114:ZN 0.2910
2 n136:1 0.2910
*RES
1 U114:ZN n136:1 10.393
2 n136:1 U115:B1 0.001
*END

*D_NET n137 0.2440
*CONN
*I U115:ZN O
*I U127:D I
*CAP
1 U115:ZN 0.1220
2 n137:1 0.1220
*RES
1 U115:ZN n137:1 4.357
2 n137:1 U127:D 0.001
*END

*D_NET n138 0.3940
*CONN
*I U116:ZN O
*I U119:A I
*CAP
1 U116:ZN 0.1970
2 n138:1 0.1970
*RES
1 U116:ZN n138:1 7.036
2 n138:1 U119:A 0.001
*END

*D_NET n139 0.4680
*CONN
*I U117:ZN O
*I U119:B1 I
*CAP
1 U117:ZN 0.2340
2 n139:1 0.2340
*RES
1 U117:ZN n139:1 8.357
2 n139:1 U119:B1 0.001
*END

*D_NET n140 0.6360
*CONN
*I U118:ZN O
*I U119:B2 I
*CAP
1 U118:ZN 0.3180
2 n140:1 0.3180
*RES
1 U118:ZN n140:1 11.357
2 n140:1 U119:B2 0.001
*END

*D_NET n141 0.4860
*CONN
*I U119:ZN O
*I U124:D I
*CAP
1 U119:ZN 0.2430
2 n141:1 0.2430
*RES
1 U119:ZN n141:1 8.679
2 n141:1 U124:D 0.001
*END

*D_NET n142 0.0000
*CONN
*I U120:QN O
*CAP
1 U120:QN 0.0000
2 n142:1 0.0000
*RES
1 U120:QN n142:1 0.000
*END

*D_NET n143 0.0000
*CONN
*I U121:QN O
*CAP
1 U121:QN 0.0000
2 n143:1 0.0000
*RES
1 U121:QN n143:1 0.000
*END

*D_NET n144 0.0000
*CONN
*I U122:QN O
*CAP
1 U122:QN 0.0000
2 n144:1 0.0000
*RES
1 U122:QN n144:1 0.000
*END

*D_NET n145 0.0000
*CONN
*I U123:QN O
*CAP
1 U123:QN 0.0000
2 n145:1 0.0000
*RES
1 U123:QN n145:1 0.000
*END

*D_NET n146 0.0000
*CONN
*I U124:QN O
*CAP
1 U124:QN 0.0000
2 n146:1 0.0000
*RES
1 U124:QN n146:1 0.000
*END

*D_NET n147 0.0000
*CONN
*I U125:QN O
*CAP
1 U125:QN 0.0000
2 n147:1 0.0000
*RES
1 U125:QN n147:1 0.000
*END

*D_NET n148 0.0000
*CONN
*I U126:QN O
*CAP
1 U126:QN 0.0000
2 n148:1 0.0000
*RES
1 U126:QN n148:1 0.000
*END

*D_NET n149 0.0000
*CONN
*I U127:QN O
*CAP
1 U127:QN 0.0000
2 n149:1 0.0000
*RES
1 U127:QN n149:1 0.000
*END

*D_NET clk_root 2.8360
*CONN
*I CTS_root:Z O
*I CTS_leaf0:A I
*I CTS_leaf1:A I
*CAP
1 CTS_root:Z 1.4180
2 clk_root:1 1.4180
*RES
1 CTS_root:Z clk_root:1 50.643
2 clk_root:1 CTS_leaf0:A 0.001
3 clk_root:1 CTS_leaf1:A 0.001
*END

*D_NET clk_leaf0 4.0800
*CONN
*I CTS_leaf0:Z O
*I U127:CK I
*I U123:CK I
*I U122:CK I
*I U126:CK I
*CAP
1 CTS_leaf0:Z 2.0400
2 clk_leaf0:1 2.0400
*RES
1 CTS_leaf0:Z clk_leaf0:1 72.857
2 clk_leaf0:1 U127:CK 0.001
3 clk_leaf0:1 U123:CK 0.001
4 clk_leaf0:1 U122:CK 0.001
5 clk_leaf0:1 U126:CK 0.001
*END

*D_NET clk_leaf1 3.5740
*CONN
*I CTS_leaf1:Z O
*I U124:CK I
*I U120:CK I
*I U121:CK I
*I U125:CK I
*CAP
1 CTS_leaf1:Z 1.7870
2 clk_leaf1:1 1.7870
*RES
1 CTS_leaf1:Z clk_leaf1:1 63.821
2 clk_leaf1:1 U124:CK 0.001
3 clk_leaf1:1 U120:CK 0.001
4 clk_leaf1:1 U121:CK 0.001
5 clk_leaf1:1 U125:CK 0.001
*END
